\ Model Roadef challenge model with x and z .......
\ LP format - for model browsing. Use MPS format to capture full model detail.
Minimize
  0.5 obj1 + 0.5 obj2
Subject To
 R0: x[0,0] = 1
 R1: x[1,0] + x[1,1] + x[1,2] = 1
 R2: x[2,0] + x[2,1] = 1
 R3: x[0,1] = 0
 R4: x[0,2] = 0
 R5: x[2,2] = 0
 R6: 3 x[0,0] <= 3
 R7: x[1,0] <= 3
 R8: 2 x[1,1] <= 3
 R9: 3 x[1,2] <= 3
 R10: x[2,0] <= 3
 R11: 2 x[2,1] <= 3
 R12: x[0,0] <= 1
 R13: x[1,0] <= 3
 R14: 2 x[1,1] <= 3
 R15: 3 x[1,2] <= 3
 R16: x[2,0] <= 2
 R17: 2 x[2,1] <= 2
 R18: - 3 x[0,0] + z[0,0,0] + z[0,0,1] + z[0,0,2] = 0
 R19: - x[1,0] + z[1,0,0] = 0
 R20: - x[1,1] + z[1,1,0] = 0
 R21: - x[1,2] + z[1,2,0] = 0
 R22: - x[2,0] + z[2,0,0] = 0
 R23: - x[2,1] + z[2,1,0] = 0
 R24: z[1,0,0] + z[2,0,0] <= 1
 R25: z[1,1,0] + z[2,1,0] <= 1
 R26: 31 z[0,0,0] + 14 z[1,0,0] + 5 z[2,0,0] >= 10
 R27: 14 z[1,1,0] + 5 z[2,1,0] >= 0
 R28: 8 z[0,0,2] + 14 z[1,2,0] >= 6
 R29: 31 z[0,0,0] + 14 z[1,0,0] + 5 z[2,0,0] <= 49
 R30: 14 z[1,1,0] + 5 z[2,1,0] <= 23
 R31: 8 z[0,0,2] + 14 z[1,2,0] <= 15
 R32: - 7 z[0,0,0] - 5 z[1,0,0] - 4 z[2,0,0] + risk_s_t[0,0] = 0
 R33: - 4 z[0,0,0] - 4 z[1,0,0] - 8 z[2,0,0] + risk_s_t[1,0] = 0
 R34: - 8 z[0,0,0] - 5 z[1,0,0] - 2 z[2,0,0] + risk_s_t[2,0] = 0
 R35: - z[0,0,1] - 5 z[1,1,0] - 3 z[2,1,0] + risk_s_t[0,1] = 0
 R36: - 10 z[0,0,1] - 4 z[1,1,0] - 8 z[2,1,0] + risk_s_t[1,1] = 0
 R37: - 10 z[0,0,1] - 5 z[1,1,0] - z[2,1,0] + risk_s_t[2,1] = 0
 R38: - z[0,0,2] - 5 z[1,2,0] + risk_s_t[0,2] = 0
 R39: - 4 z[0,0,2] - 4 z[1,2,0] + risk_s_t[1,2] = 0
 R40: - 4 z[0,0,2] - 5 z[1,2,0] + risk_s_t[2,2] = 0
 R41: - 0.3333333333333333 risk_s_t[0,0] - 0.3333333333333333 risk_s_t[1,0]
   - 0.3333333333333333 risk_s_t[2,0] + risk_bar_t[0] = 0
 R42: - 0.3333333333333333 risk_s_t[0,1] - 0.3333333333333333 risk_s_t[1,1]
   - 0.3333333333333333 risk_s_t[2,1] + risk_bar_t[1] = 0
 R43: - 0.3333333333333333 risk_s_t[0,2] - 0.3333333333333333 risk_s_t[1,2]
   - 0.3333333333333333 risk_s_t[2,2] + risk_bar_t[2] = 0
 R44: y[0,0] + y[1,0] + y[2,0] >= 1.5
 R45: y[0,1] + y[1,1] + y[2,1] >= 1.5
 R46: y[0,2] + y[1,2] + y[2,2] >= 1.5
 R47: y[0,0] + y[1,0] + y[2,0] <= 2.5
 R48: y[0,1] + y[1,1] + y[2,1] <= 2.5
 R49: y[0,2] + y[1,2] + y[2,2] <= 2.5
 R50: 10 y[0,0] - 10 y[1,0] + risk_s_t[0,0] - risk_s_t[1,0] >= -10
 R51: 10 y[0,0] - 10 y[2,0] + risk_s_t[0,0] - risk_s_t[2,0] >= -10
 R52: - 10 y[0,0] + 10 y[1,0] - risk_s_t[0,0] + risk_s_t[1,0] >= -10
 R53: 10 y[1,0] - 10 y[2,0] + risk_s_t[1,0] - risk_s_t[2,0] >= -10
 R54: - 10 y[0,0] + 10 y[2,0] - risk_s_t[0,0] + risk_s_t[2,0] >= -10
 R55: - 10 y[1,0] + 10 y[2,0] - risk_s_t[1,0] + risk_s_t[2,0] >= -10
 R56: 10 y[0,1] - 10 y[1,1] + risk_s_t[0,1] - risk_s_t[1,1] >= -10
 R57: 10 y[0,1] - 10 y[2,1] + risk_s_t[0,1] - risk_s_t[2,1] >= -10
 R58: - 10 y[0,1] + 10 y[1,1] - risk_s_t[0,1] + risk_s_t[1,1] >= -10
 R59: 10 y[1,1] - 10 y[2,1] + risk_s_t[1,1] - risk_s_t[2,1] >= -10
 R60: - 10 y[0,1] + 10 y[2,1] - risk_s_t[0,1] + risk_s_t[2,1] >= -10
 R61: - 10 y[1,1] + 10 y[2,1] - risk_s_t[1,1] + risk_s_t[2,1] >= -10
 R62: 10 y[0,2] - 10 y[1,2] + risk_s_t[0,2] - risk_s_t[1,2] >= -10
 R63: 10 y[0,2] - 10 y[2,2] + risk_s_t[0,2] - risk_s_t[2,2] >= -10
 R64: - 10 y[0,2] + 10 y[1,2] - risk_s_t[0,2] + risk_s_t[1,2] >= -10
 R65: 10 y[1,2] - 10 y[2,2] + risk_s_t[1,2] - risk_s_t[2,2] >= -10
 R66: - 10 y[0,2] + 10 y[2,2] - risk_s_t[0,2] + risk_s_t[2,2] >= -10
 R67: - 10 y[1,2] + 10 y[2,2] - risk_s_t[1,2] + risk_s_t[2,2] >= -10
 R68: - 10 y[0,0] - risk_s_t[0,0] + q_t[0] >= -10
 R69: - 10 y[1,0] - risk_s_t[1,0] + q_t[0] >= -10
 R70: - 10 y[2,0] - risk_s_t[2,0] + q_t[0] >= -10
 R71: - 10 y[0,1] - risk_s_t[0,1] + q_t[1] >= -10
 R72: - 10 y[1,1] - risk_s_t[1,1] + q_t[1] >= -10
 R73: - 10 y[2,1] - risk_s_t[2,1] + q_t[1] >= -10
 R74: - 10 y[0,2] - risk_s_t[0,2] + q_t[2] >= -10
 R75: - 10 y[1,2] - risk_s_t[1,2] + q_t[2] >= -10
 R76: - 10 y[2,2] - risk_s_t[2,2] + q_t[2] >= -10
 R77: excess[0] >= 0
 R78: excess[1] >= 0
 R79: excess[2] >= 0
 R80: risk_bar_t[0] - q_t[0] + excess[0] >= 0
 R81: risk_bar_t[1] - q_t[1] + excess[1] >= 0
 R82: risk_bar_t[2] - q_t[2] + excess[2] >= 0
 R83: - 0.3333333333333333 risk_bar_t[0] - 0.3333333333333333 risk_bar_t[1]
   - 0.3333333333333333 risk_bar_t[2] + obj1 = 0
 R84: - 0.3333333333333333 excess[0] - 0.3333333333333333 excess[1]
   - 0.3333333333333333 excess[2] + obj2 = 0
Bounds
Binaries
 x[0,0] x[0,1] x[0,2] x[1,0] x[1,1] x[1,2] x[2,0] x[2,1] x[2,2] z[0,0,0]
 z[0,0,1] z[0,0,2] z[1,0,0] z[1,1,0] z[1,2,0] z[2,0,0] z[2,1,0] y[0,0]
 y[0,1] y[0,2] y[1,0] y[1,1] y[1,2] y[2,0] y[2,1] y[2,2]
End
